!File created by NanoVNA-F V2
# Hz S RI R 50
 100000000  0.273968  0.810867
 100900000  0.205323  0.840922
 101800000  0.244585  0.819022
 102700000  0.282153  0.797051
 103600000  0.321683  0.789253
 104500000  0.363152  0.772616
 105400000  0.403825  0.754085
 106300000  0.433822  0.723060
 107200000  0.470461  0.689245
 108100000  0.500971  0.664589
 109000000  0.536045  0.627550
 109900000  0.564506  0.598469
 110800000  0.590530  0.563265
 111700000  0.621690  0.528756
 112600000  0.642072  0.487773
 113500000  0.663735  0.445709
 114400000  0.684664  0.405994
 115300000  0.693791  0.361173
 116200000  0.704888  0.316411
 117100000  0.712509  0.275708
 118000000  0.716786  0.230975
 118900000  0.720520  0.184326
 119800000  0.714412  0.139278
 120700000  0.714844  0.088406
 121600000  0.703897  0.042655
 122500000  0.687204 -0.010320
 123400000  0.660655 -0.057534
 124300000  0.627017 -0.102190
 125200000  0.589214 -0.141254
 126100000  0.543692 -0.172041
 127000000  0.496148 -0.189555
 127900000  0.450485 -0.198418
 128800000  0.405972 -0.206336
 129700000  0.358546 -0.200840
 130600000  0.315815 -0.184811
 131500000  0.285459 -0.157769
 132400000  0.262116 -0.124649
 133300000  0.254742 -0.093332
 134200000  0.264984 -0.064635
 135100000  0.277916 -0.045050
 136000000  0.294242 -0.034498
 136900000  0.309476 -0.036229
 137800000  0.323489 -0.042954
 138700000  0.330619 -0.057126
 139600000  0.329250 -0.067170
 140500000  0.324908 -0.073254
 141400000  0.323069 -0.081529
 142300000  0.316729 -0.085005
 143200000  0.310445 -0.089172
 144100000  0.304138 -0.086995
 145000000  0.300517 -0.084610
 145900000  0.296598 -0.083738
 146800000  0.298838 -0.075641
 147700000  0.303170 -0.068246
 148600000  0.310171 -0.063160
 149500000  0.325366 -0.061917
 150400000  0.342443 -0.062450
 151300000  0.357587 -0.071568
 152200000  0.374805 -0.082899
 153100000  0.386359 -0.097276
 154000000  0.394865 -0.112458
 154900000  0.405184 -0.128985
 155800000  0.410459 -0.149567
 156700000  0.416053 -0.166960
 157600000  0.417302 -0.184587
 158500000  0.420914 -0.205038
 159400000  0.422136 -0.224017
 160300000  0.424945 -0.242975
 161200000  0.429778 -0.264390
 162100000  0.432849 -0.287967
 163000000  0.429744 -0.316555
 163900000  0.422721 -0.345055
 164800000  0.413250 -0.371908
 165700000  0.405103 -0.396299
 166600000  0.390095 -0.420465
 167500000  0.376681 -0.442769
 168400000  0.364488 -0.462462
 169300000  0.349192 -0.489181
 170200000  0.336837 -0.509781
 171100000  0.321863 -0.534580
 172000000  0.303182 -0.558630
 172900000  0.281198 -0.585562
 173800000  0.253731 -0.609088
 174700000  0.230885 -0.633619
 175600000  0.199946 -0.656669
 176500000  0.169134 -0.677949
 177400000  0.127993 -0.700698
 178300000  0.085570 -0.710981
 179200000  0.042844 -0.722543
 180100000  0.001612 -0.726462
 181000000 -0.038008 -0.730645
 181900000 -0.081234 -0.730920
 182800000 -0.121827 -0.727585
 183700000 -0.160970 -0.718786
 184600000 -0.199084 -0.707133
 185500000 -0.229380 -0.697751
 186400000 -0.265916 -0.688330
 187300000 -0.302516 -0.673494
 188200000 -0.333895 -0.652585
 189100000 -0.363328 -0.641328
 190000000 -0.395191 -0.620584
