!File created by NanoVNA-F V2
# Hz S RI R 50
 100000000  0.160984  0.839990
 100900000  0.204410  0.841144
 101800000  0.243434  0.819403
 102700000  0.284913  0.809181
 103600000  0.320625  0.791504
 104500000  0.362971  0.774094
 105400000  0.402501  0.752936
 106300000  0.438321  0.723915
 107200000  0.468272  0.688582
 108100000  0.506303  0.662005
 109000000  0.532287  0.627012
 109900000  0.563143  0.595751
 110800000  0.593510  0.565927
 111700000  0.617176  0.527912
 112600000  0.640169  0.485552
 113500000  0.659531  0.449884
 114400000  0.680060  0.407149
 115300000  0.690073  0.360853
 116200000  0.705349  0.319273
 117100000  0.709194  0.274358
 118000000  0.712206  0.233007
 118900000  0.721204  0.185754
 119800000  0.710526  0.141570
 120700000  0.714288  0.094108
 121600000  0.706802  0.048537
 122500000  0.690192 -0.008953
 123400000  0.659745 -0.054548
 124300000  0.629489 -0.100611
 125200000  0.586721 -0.134048
 126100000  0.547700 -0.164974
 127000000  0.498377 -0.186510
 127900000  0.452563 -0.195218
 128800000  0.409218 -0.200542
 129700000  0.362448 -0.196244
 130600000  0.318626 -0.181982
 131500000  0.287118 -0.153756
 132400000  0.262824 -0.122917
 133300000  0.257621 -0.090932
 134200000  0.267815 -0.061032
 135100000  0.268792 -0.112144
 136000000  0.296514 -0.035597
 136900000  0.310960 -0.031361
 137800000  0.324577 -0.041164
 138700000  0.330317 -0.053953
 139600000  0.332613 -0.065532
 140500000  0.329601 -0.072406
 141400000  0.323608 -0.080468
 142300000  0.315971 -0.086811
 143200000  0.312484 -0.088788
 144100000  0.305950 -0.085184
 145000000  0.301985 -0.086556
 145900000  0.297918 -0.080238
 146800000  0.300045 -0.076935
 147700000  0.303023 -0.068150
 148600000  0.310179 -0.063431
 149500000  0.324428 -0.061370
 150400000  0.343373 -0.062097
 151300000  0.359074 -0.069726
 152200000  0.374040 -0.081755
 153100000  0.384950 -0.096702
 154000000  0.392682 -0.111759
 154900000  0.405368 -0.127701
 155800000  0.410161 -0.148556
 156700000  0.417168 -0.165284
 157600000  0.420106 -0.183228
 158500000  0.420876 -0.203956
 159400000  0.423062 -0.222904
 160300000  0.427005 -0.241181
 161200000  0.428421 -0.263125
 162100000  0.432972 -0.286022
 163000000  0.429654 -0.316518
 163900000  0.423140 -0.341617
 164800000  0.415223 -0.368742
 165700000  0.405172 -0.394352
 166600000  0.391054 -0.417945
 167500000  0.380263 -0.440157
 168400000  0.365847 -0.461086
 169300000  0.353255 -0.486873
 170200000  0.338529 -0.510930
 171100000  0.322119 -0.532870
 172000000  0.304700 -0.558324
 172900000  0.282867 -0.581996
 173800000  0.256638 -0.603092
 174700000  0.233847 -0.632044
 175600000  0.203805 -0.653719
 176500000  0.171673 -0.677361
 177400000  0.130396 -0.701230
 178300000  0.091637 -0.713030
 179200000  0.046437 -0.726471
 180100000  0.005266 -0.730314
 181000000 -0.035778 -0.732502
 181900000 -0.076022 -0.732240
 182800000 -0.117593 -0.728908
 183700000 -0.155944 -0.717675
 184600000 -0.195598 -0.705802
 185500000 -0.229897 -0.699013
 186400000 -0.263867 -0.687867
 187300000 -0.300028 -0.672232
 188200000 -0.332595 -0.654934
 189100000 -0.365629 -0.643838
 190000000 -0.395714 -0.622257
