# HZ S RI R 50
100000000 0.18052019569181973 0.8528756106853468
100900000 0.22233688092707027 0.8431828478902812
101800000 0.26615025511176643 0.8278082173744643
102700000 0.31125212091411936 0.8170519995660629
103600000 0.34494520477246615 0.7933713341053711
104500000 0.3829536190427705 0.7692777821817729
105400000 0.4197794836312593 0.7476209272224397
106300000 0.4616286312653257 0.7211428776285431
107200000 0.49274962431212366 0.6892344393820218
108100000 0.5220139223656157 0.6656870127776219
109000000 0.5462864306991321 0.6254339758707784
109900000 0.574864801758744 0.596353554080296
110800000 0.5939165902136443 0.555054157629706
111700000 0.6146081652967132 0.5224008080186441
112600000 0.6342992751528873 0.48570510799849115
113500000 0.6509114162683853 0.45245513958258676
114400000 0.6652694315157408 0.4130939387163155
115300000 0.6742517707212422 0.3766820764296766
116200000 0.6865758309976854 0.3416229116082444
117100000 0.693433390990937 0.2992673153735375
118000000 0.7001631697612526 0.2608619249094974
118900000 0.7003622215507231 0.2214243143447319
119800000 0.7059914491721946 0.18463506947879493
120700000 0.7008978297291115 0.14441304718200848
121600000 0.6940618227174156 0.1085819783872146
122500000 0.6890666762074162 0.07082321868394426
123400000 0.6786399868405262 0.03256239290279737
124300000 0.6611350793678367 -0.002104448120466168
125200000 0.6433792498989993 -0.033541367591157854
126100000 0.6260992985710803 -0.06728164812441659
127000000 0.6037192524384083 -0.09653400566510917
127900000 0.57998445103031 -0.12654082192134095
128800000 0.55513584939902 -0.1492539613901075
129700000 0.528347986402689 -0.17119249498020633
130600000 0.4983354343081008 -0.18920488845885566
131500000 0.4694786797292376 -0.20699319045308034
132400000 0.43501356642602435 -0.21940287520370486
133300000 0.40178045432215825 -0.22788953382947094
134200000 0.37014104807221637 -0.23598330596595532
135100000 0.33630352297203137 -0.23378058934025678
136000000 0.304842735889393 -0.22834259406049773
136900000 0.2733929902783028 -0.221501928692089
137800000 0.24334073093282801 -0.20573570633266947
138700000 0.2171715719254747 -0.18770709859681847
139600000 0.19565341170968417 -0.16771122782421896
140500000 0.17881959692654306 -0.13950562826017
141400000 0.16846990275629317 -0.11167977042250021
142300000 0.16668132507641858 -0.08150330973165931
143200000 0.17031880661047308 -0.0543369601385079
144100000 0.18299886636745655 -0.026464860868213057
145000000 0.19826916681999768 -0.003758223535767162
145900000 0.22030733476311753 0.013438316956420483
146800000 0.24518993989220925 0.025207609112849604
147700000 0.2696328069221076 0.030764103248434285
148600000 0.2972981480227197 0.03151898175386857
149500000 0.32096446842978676 0.028293765151612353
150400000 0.34420887023328745 0.020318823700468957
151300000 0.36610753445235567 0.008218658578875644
152200000 0.3849517002594098 -0.007828360936151189
153100000 0.4035496258704935 -0.02548925654814909
154000000 0.41524837668368003 -0.0433023706524166
154900000 0.42865364751542634 -0.0634337932788332
155800000 0.4371102153527003 -0.0815695816652371
156700000 0.4443002815511408 -0.09916939604359742
157600000 0.45139769232132004 -0.11996475383464368
158500000 0.46029796350167695 -0.1394852736046545
159400000 0.4680074507185264 -0.1631369391509396
160300000 0.47359860159203504 -0.1873827596358012
161200000 0.4805739222462004 -0.21292957752507405
162100000 0.4832415504390172 -0.23877872753256033
163000000 0.48502354541788534 -0.267649588171645
163900000 0.4850723502137176 -0.30016053452442315
164800000 0.4799155098847062 -0.3288587671002822
165700000 0.4697486857329064 -0.36185623277352863
166600000 0.45880215507767336 -0.39486849492586895
167500000 0.44566915916637045 -0.4241170620062923
168400000 0.4273538180230117 -0.4527753052510056
169300000 0.4126549025173115 -0.4827382860447802
170200000 0.3926475820419575 -0.5102197973786504
171100000 0.37217078330486963 -0.5361560213584925
172000000 0.3429423789468201 -0.5613070870110506
172900000 0.31783373002515813 -0.5841626055669428
173800000 0.29101171308776513 -0.6059775079337082
174700000 0.2607675834174975 -0.6245024340242993
175600000 0.22835548877077735 -0.6438876357530122
176500000 0.19810837909113785 -0.6604027048944091
177400000 0.16074172903616266 -0.6729748633894314
178300000 0.12629516852883552 -0.6848237373753653
179200000 0.09200634228263957 -0.6931905894087157
180100000 0.055897176319311404 -0.7011050651363498
181000000 0.01913680045559104 -0.7087110435633035
181900000 -0.01689087893345389 -0.7116296789456072
182800000 -0.05166857078230427 -0.7120040468313169
183700000 -0.0932479982440182 -0.7108660100143757
184600000 -0.12694712539859576 -0.7045673747266934
185500000 -0.16587120480104847 -0.697077168844455
186400000 -0.2036428783516376 -0.6903130088241518
187300000 -0.2386362232856722 -0.6765244795489281
188200000 -0.2731188710359725 -0.6654831626582748
189100000 -0.3049979773034135 -0.6516922087560975
190000000 -0.3382489561871414 -0.6358177361422027
