!File created by NanoVNA-F V2
# Hz S RI R 50
 100000000  0.273172  0.810602
 100900000  0.203314  0.841032
 101800000  0.243506  0.819607
 102700000  0.272658  0.795914
 103600000  0.318686  0.789144
 104500000  0.359383  0.776978
 105400000  0.398088  0.755610
 106300000  0.437625  0.724952
 107200000  0.470488  0.696170
 108100000  0.507177  0.667236
 109000000  0.535736  0.636520
 109900000  0.563040  0.600899
 110800000  0.592898  0.571141
 111700000  0.626390  0.534531
 112600000  0.649694  0.493153
 113500000  0.670474  0.452710
 114400000  0.690874  0.413044
 115300000  0.704547  0.364618
 116200000  0.713277  0.320562
 117100000  0.722315  0.275701
 118000000  0.726414  0.231071
 118900000  0.730203  0.181772
 119800000  0.725075  0.132302
 120700000  0.723936  0.086771
 121600000  0.716963  0.034765
 122500000  0.697894 -0.020956
 123400000  0.667111 -0.069945
 124300000  0.635561 -0.112092
 125200000  0.592468 -0.152919
 126100000  0.547028 -0.185273
 127000000  0.496868 -0.206467
 127900000  0.448518 -0.217229
 128800000  0.400862 -0.222672
 129700000  0.350942 -0.216687
 130600000  0.305918 -0.201766
 131500000  0.264696 -0.172683
 132400000  0.236044 -0.134164
 133300000  0.231052 -0.094096
 134200000  0.240132 -0.054261
 135100000  0.258915 -0.029047
 136000000  0.280918 -0.015994
 136900000  0.303066 -0.013644
 137800000  0.325589 -0.023298
 138700000  0.334415 -0.039493
 139600000  0.336777 -0.051637
 140500000  0.336867 -0.062347
 141400000  0.332514 -0.070259
 142300000  0.328417 -0.077193
 143200000  0.322927 -0.084206
 144100000  0.320844 -0.081772
 145000000  0.320314 -0.085676
 145900000  0.314568 -0.089555
 146800000  0.313910 -0.088170
 147700000  0.316423 -0.080367
 148600000  0.319928 -0.078017
 149500000  0.331588 -0.073857
 150400000  0.345310 -0.077489
 151300000  0.360458 -0.082965
 152200000  0.375888 -0.094624
 153100000  0.389658 -0.110339
 154000000  0.396178 -0.128305
 154900000  0.405316 -0.142970
 155800000  0.412359 -0.165880
 156700000  0.414394 -0.183758
 157600000  0.416383 -0.199410
 158500000  0.415642 -0.220434
 159400000  0.417641 -0.238742
 160300000  0.419572 -0.255971
 161200000  0.423002 -0.278802
 162100000  0.422388 -0.302669
 163000000  0.416734 -0.329807
 163900000  0.412154 -0.352753
 164800000  0.401982 -0.381795
 165700000  0.391655 -0.401479
 166600000  0.375396 -0.427423
 167500000  0.365124 -0.447345
 168400000  0.350073 -0.470418
 169300000  0.334644 -0.494805
 170200000  0.319180 -0.515481
 171100000  0.304821 -0.536712
 172000000  0.283519 -0.560702
 172900000  0.264088 -0.581145
 173800000  0.238596 -0.600481
 174700000  0.219477 -0.625385
 175600000  0.189097 -0.647863
 176500000  0.159060 -0.670414
 177400000  0.120934 -0.690617
 178300000  0.078954 -0.701447
 179200000  0.038205 -0.713668
 180100000  0.000082 -0.719249
 181000000 -0.039316 -0.725313
 181900000 -0.084224 -0.723057
 182800000 -0.123784 -0.723031
 183700000 -0.162257 -0.711892
 184600000 -0.198682 -0.703328
 185500000 -0.231910 -0.691513
 186400000 -0.266375 -0.681818
 187300000 -0.300669 -0.667739
 188200000 -0.333377 -0.648556
 189100000 -0.364099 -0.637826
 190000000 -0.397786 -0.617514
