!File created by NanoVNA-F V2
# Hz S RI R 50
 100000000  0.272765  0.812285
 100900000  0.204335  0.841054
 101800000  0.243310  0.818740
 102700000  0.284647  0.813692
 103600000  0.320507  0.787162
 104500000  0.357083  0.769437
 105400000  0.403775  0.753441
 106300000  0.439383  0.724429
 107200000  0.474510  0.692066
 108100000  0.504371  0.666229
 109000000  0.531862  0.627168
 109900000  0.562088  0.600964
 110800000  0.589235  0.564267
 111700000  0.620157  0.531029
 112600000  0.643251  0.486514
 113500000  0.663114  0.447640
 114400000  0.679399  0.406163
 115300000  0.689347  0.364534
 116200000  0.704223  0.316810
 117100000  0.710680  0.274310
 118000000  0.712936  0.232205
 118900000  0.721246  0.184522
 119800000  0.714051  0.142737
 120700000  0.713889  0.089910
 121600000  0.705856  0.045521
 122500000  0.687311 -0.010249
 123400000  0.661725 -0.058900
 124300000  0.628436 -0.100879
 125200000  0.584554 -0.136932
 126100000  0.545920 -0.166013
 127000000  0.498679 -0.183985
 127900000  0.451486 -0.196246
 128800000  0.407985 -0.200843
 129700000  0.362082 -0.196138
 130600000  0.320137 -0.182492
 131500000  0.284714 -0.153883
 132400000  0.262503 -0.121723
 133300000  0.261133 -0.089699
 134200000  0.270108 -0.062989
 135100000  0.281336 -0.042536
 136000000  0.296200 -0.033866
 136900000  0.311944 -0.033132
 137800000  0.326287 -0.042035
 138700000  0.333322 -0.055694
 139600000  0.332703 -0.065689
 140500000  0.329222 -0.075231
 141400000  0.324530 -0.083044
 142300000  0.317544 -0.086903
 143200000  0.311678 -0.090659
 144100000  0.303282 -0.087647
 145000000  0.301155 -0.086032
 145900000  0.298425 -0.082702
 146800000  0.299888 -0.076166
 147700000  0.303680 -0.069890
 148600000  0.309691 -0.064794
 149500000  0.323254 -0.062239
 150400000  0.340922 -0.063482
 151300000  0.357319 -0.071204
 152200000  0.373867 -0.084960
 153100000  0.385974 -0.096142
 154000000  0.392153 -0.113135
 154900000  0.403420 -0.129962
 155800000  0.409745 -0.150294
 156700000  0.414506 -0.166924
 157600000  0.418735 -0.183471
 158500000  0.419468 -0.202564
 159400000  0.420471 -0.220764
 160300000  0.425602 -0.239348
 161200000  0.430435 -0.262881
 162100000  0.430859 -0.285040
 163000000  0.427330 -0.315710
 163900000  0.425441 -0.341606
 164800000  0.412965 -0.369443
 165700000  0.405414 -0.394499
 166600000  0.390042 -0.417642
 167500000  0.379698 -0.438759
 168400000  0.363574 -0.460958
 169300000  0.351341 -0.488458
 170200000  0.338449 -0.509175
 171100000  0.321471 -0.533803
 172000000  0.304527 -0.558447
 172900000  0.282434 -0.581688
 173800000  0.255451 -0.603744
 174700000  0.234656 -0.629531
 175600000  0.203691 -0.654759
 176500000  0.172103 -0.679720
 177400000  0.131211 -0.699443
 178300000  0.088949 -0.708321
 179200000  0.045357 -0.723203
 180100000  0.003893 -0.726454
 181000000 -0.034110 -0.733379
 181900000 -0.075962 -0.729880
 182800000 -0.115863 -0.728186
 183700000 -0.160573 -0.719502
 184600000 -0.193576 -0.707367
 185500000 -0.230257 -0.698681
 186400000 -0.261975 -0.687190
 187300000 -0.300481 -0.674431
 188200000 -0.330749 -0.656194
 189100000 -0.362747 -0.640458
 190000000 -0.394207 -0.623518
