!File created by NanoVNA-F V2
# Hz S RI R 50
 100000000  0.277920  0.818903
 100900000  0.207054  0.847965
 101800000  0.250780  0.827460
 102700000  0.282765  0.817352
 103600000  0.323335  0.791731
 104500000  0.365281  0.780382
 105400000  0.408688  0.759985
 106300000  0.440860  0.729380
 107200000  0.479570  0.703464
 108100000  0.504860  0.669394
 109000000  0.543252  0.642748
 109900000  0.578705  0.609190
 110800000  0.608765  0.572987
 111700000  0.636690  0.531446
 112600000  0.658698  0.486033
 113500000  0.676102  0.440692
 114400000  0.698192  0.395413
 115300000  0.703062  0.351116
 116200000  0.704227  0.304693
 117100000  0.707924  0.268422
 118000000  0.711938  0.229636
 118900000  0.719569  0.185333
 119800000  0.715886  0.141948
 120700000  0.717757  0.092064
 121600000  0.709667  0.044872
 122500000  0.691907 -0.005510
 123400000  0.667832 -0.055511
 124300000  0.631845 -0.096418
 125200000  0.592609 -0.130091
 126100000  0.554591 -0.159371
 127000000  0.509733 -0.175157
 127900000  0.468862 -0.182618
 128800000  0.434274 -0.192345
 129700000  0.397902 -0.191475
 130600000  0.362211 -0.178698
 131500000  0.335480 -0.165413
 132400000  0.317388 -0.145851
 133300000  0.312632 -0.127903
 134200000  0.312644 -0.118382
 135100000  0.314137 -0.111621
 136000000  0.312051 -0.111427
 136900000  0.311357 -0.111628
 137800000  0.307923 -0.118787
 138700000  0.298353 -0.126753
 139600000  0.285016 -0.127627
 140500000  0.272616 -0.124687
 141400000  0.259749 -0.120257
 142300000  0.245771 -0.112290
 143200000  0.241083 -0.099160
 144100000  0.237643 -0.079225
 145000000  0.241441 -0.065897
 145900000  0.249804 -0.050602
 146800000  0.266114 -0.040338
 147700000  0.282287 -0.030247
 148600000  0.299606 -0.026547
 149500000  0.323870 -0.031062
 150400000  0.344963 -0.040356
 151300000  0.363947 -0.053209
 152200000  0.379075 -0.071016
 153100000  0.391262 -0.087411
 154000000  0.399352 -0.105916
 154900000  0.406854 -0.124227
 155800000  0.414096 -0.147242
 156700000  0.419839 -0.166131
 157600000  0.420967 -0.183576
 158500000  0.423037 -0.204054
 159400000  0.423412 -0.224654
 160300000  0.425458 -0.247515
 161200000  0.429356 -0.269223
 162100000  0.428134 -0.296754
 163000000  0.422415 -0.324353
 163900000  0.413400 -0.349204
 164800000  0.402290 -0.372699
 165700000  0.390946 -0.391616
 166600000  0.377453 -0.414572
 167500000  0.368080 -0.433632
 168400000  0.355030 -0.453998
 169300000  0.343239 -0.480713
 170200000  0.330220 -0.502454
 171100000  0.315675 -0.525988
 172000000  0.298589 -0.548743
 172900000  0.277681 -0.574561
 173800000  0.254645 -0.595737
 174700000  0.230780 -0.622435
 175600000  0.199911 -0.646102
 176500000  0.170809 -0.668042
 177400000  0.129929 -0.687532
 178300000  0.093463 -0.701967
 179200000  0.053598 -0.714389
 180100000  0.010772 -0.718727
 181000000 -0.026738 -0.725287
 181900000 -0.069616 -0.723434
 182800000 -0.107394 -0.721837
 183700000 -0.148641 -0.717323
 184600000 -0.182722 -0.707581
 185500000 -0.220226 -0.698934
 186400000 -0.255612 -0.691018
 187300000 -0.291787 -0.673039
 188200000 -0.325417 -0.657173
 189100000 -0.354657 -0.643096
 190000000 -0.388690 -0.624029
