# HZ S RI R 50
160000000 0.22523030022709062 -0.8182010946904309
161500000 0.1615428143067534 -0.8345129555135065
163000000 0.09295381479803991 -0.8444538897038231
164500000 0.02471691163747328 -0.8457244541194503
166000000 -0.041914017533075006 -0.841441620961057
167500000 -0.11284927651376005 -0.8322716306856434
169000000 -0.1873907286453543 -0.8160548489218399
170500000 -0.25115712030671083 -0.7954626737629615
172000000 -0.3221948875007137 -0.7672775943489456
173500000 -0.3884389768142817 -0.72848147111058
175000000 -0.4473851926417152 -0.6864817026774909
176500000 -0.500334567804339 -0.6403953829000784
178000000 -0.553039697913937 -0.5853662201417085
179500000 -0.5992622065787513 -0.5261801204258126
181000000 -0.6397784830658856 -0.4636123907162269
182500000 -0.669306133819034 -0.3978135755446613
184000000 -0.6943047437225386 -0.32979378729704023
185500000 -0.7092031197795842 -0.2601235689277736
187000000 -0.7174035639389651 -0.1871741470599209
188500000 -0.7221425565860791 -0.12042841137316287
190000000 -0.7188589657133273 -0.051064464932251245
191500000 -0.7062573590453751 0.019136700882783794
193000000 -0.6878162905374473 0.08335486704005704
194500000 -0.6630195420200431 0.14685087663783997
196000000 -0.6298366479976686 0.2052872436163455
197500000 -0.593869898788553 0.2570224676273487
199000000 -0.5549504119627879 0.3043748492539591
200500000 -0.5065916183786882 0.34949721597493305
202000000 -0.45761817416727035 0.3831686101825553
203500000 -0.40434611034146706 0.4139872512496814
205000000 -0.35338735957069367 0.4343159387545122
206500000 -0.2973018452151624 0.44906378243845213
208000000 -0.2442005807462871 0.45591379046252023
209500000 -0.19207639581090158 0.45718441275792615
211000000 -0.14026651196313283 0.452710924923988
212500000 -0.09129173150875466 0.43856915138778535
214000000 -0.04795789897431798 0.4214146132484264
215500000 -0.011986399642070685 0.3956223194962708
217000000 0.018600695040088194 0.3688499175741592
218500000 0.04566332280048209 0.33502538969629825
220000000 0.06077343985036034 0.30551212723356547
221500000 0.07303172061423222 0.2735550871665501
223000000 0.07894839373661669 0.24116912913486854
224500000 0.07373496279383261 0.21417169659052993
226000000 0.06657998719481036 0.1931857172010545
227500000 0.05376054463730858 0.1778446176047067
229000000 0.04378769655949381 0.16636930100957734
230500000 0.033650370374506175 0.15814757733120063
232000000 0.022648453634537838 0.15471470150418207
233500000 0.011889270263964252 0.15323540899840823
235000000 0.0018048220766034378 0.15367665246227882
236500000 -0.010840592153583782 0.15805194145274734
238000000 -0.02197445737240451 0.1662436798013518
239500000 -0.030126189799371646 0.17725212080942074
241000000 -0.03652158076972802 0.19052183571879452
242500000 -0.04018938732646803 0.2076367553409607
244000000 -0.04177634441348638 0.22611080241578724
245500000 -0.03789761656716149 0.24893048556180583
247000000 -0.028684752098650904 0.26980526000594846
248500000 -0.016036525454948707 0.28913930075269295
250000000 -0.002037998846442495 0.3078808247403147
251500000 0.014912663411941612 0.32593406533553726
253000000 0.03553819747191008 0.3399831399932073
254500000 0.05973078184018126 0.3551994425080444
256000000 0.0878755751882081 0.3699427439052246
257500000 0.11615870707481236 0.3777390226163667
259000000 0.1480581319719455 0.3831121169454577
260500000 0.1801823368938718 0.3857545549914947
262000000 0.21358348510043212 0.38446258730265576
263500000 0.24640985652346953 0.38155439580590333
265000000 0.28248572478303696 0.37472322011765
266500000 0.3154380087766112 0.3630945899829114
268000000 0.3502922491600381 0.3452860888113619
269500000 0.3815412439406185 0.3266260341014854
271000000 0.41184507563164013 0.30496526259280765
272500000 0.43932579980244557 0.278914397415778
274000000 0.4657067713254245 0.25198475606874154
275500000 0.4908214618450745 0.222311459077318
277000000 0.5119190679163659 0.19091192807133012
278500000 0.5318883709268342 0.15710418269347937
280000000 0.5475698063670952 0.12098449381676504
281500000 0.5604931763660379 0.08481665735823243
283000000 0.569362430252466 0.045217635361042424
284500000 0.5788929167948507 0.009351187842814503
286000000 0.5866608597687125 -0.02815120450776473
287500000 0.590435373032768 -0.06823304557575008
289000000 0.5933930610377404 -0.1101932993585156
290500000 0.5905097098750955 -0.15408567694573685
292000000 0.5858914033105067 -0.19971177779022434
293500000 0.575043645511043 -0.2445527100146451
295000000 0.5584118907298069 -0.28766850917813813
296500000 0.5397202937240845 -0.33050743653647396
298000000 0.5174956924659837 -0.3725206718438885
299500000 0.4928353732636054 -0.4126140776893488
301000000 0.4600772401243323 -0.45151306799485563
302500000 0.4255926313466151 -0.4874300954061797
304000000 0.3876916153952383 -0.5159132854787588
305500000 0.34693502554594635 -0.5418343293150331
307000000 0.3064150646198693 -0.5672677796700927
308500000 0.26570890603228203 -0.5882473529443467
310000000 0.22096181392993117 -0.6072766929023651
