# HZ S RI R 50
400000000 0.7841854111340777 0.05334849919155655
403800000 0.7771245679121772 -0.08690496022544691
407600000 0.7494474289349753 -0.22250605097903886
411400000 0.6916441953989885 -0.35090675093002804
415200000 0.6186603141028632 -0.46582140810474276
419000000 0.5176012185932047 -0.5653276793945862
422800000 0.4058840503848874 -0.6469104534868175
426600000 0.2798649695415659 -0.7042578762643862
430400000 0.1434296452004583 -0.7404887572930966
434200000 0.005713096153805232 -0.7457227594739883
438000000 -0.13150159314785925 -0.7264868676499167
441800000 -0.2635474550724378 -0.6829171026202767
445600000 -0.3818434092715059 -0.6155210618254194
449400000 -0.48633788120306987 -0.5223249346779968
453200000 -0.5706777161582998 -0.4164155181313324
457000000 -0.6286635085081974 -0.2953389493041985
460800000 -0.6669764981290683 -0.1676524510609854
464600000 -0.6782298315836001 -0.030396407370968315
468400000 -0.6590373027919206 0.0988799215331706
472200000 -0.6148095228657511 0.2233754701310263
476000000 -0.5461280681086859 0.33053045417636806
479800000 -0.46160785691102957 0.422375711619292
483600000 -0.3598284322265601 0.4923122881182876
487400000 -0.24951110941693158 0.5421484539215261
491200000 -0.13643422469626015 0.5616966572884659
495000000 -0.020252515722038955 0.5644781631551027
498800000 0.09232831411501836 0.5351768082270514
502600000 0.1894369228883573 0.4852000233916718
506400000 0.270603326606481 0.4177410061460243
510200000 0.3356576733443204 0.33821440031897865
514000000 0.38035245397411616 0.24922664126039382
517800000 0.398250380444308 0.15046974529867044
521600000 0.39221673937414814 0.05973911138473901
525400000 0.36720074253886453 -0.024332283806685725
529200000 0.32405596445371143 -0.1009676815891732
533000000 0.26421817927668934 -0.1591917073027792
536800000 0.19230962902333823 -0.19317713653323348
540600000 0.1229701912071103 -0.2102610092669986
544400000 0.051890377391107245 -0.2072315829003326
548200000 -0.011392137465138582 -0.18386087084870406
552000000 -0.05842561030618234 -0.1426412286710841
555800000 -0.08913745684980182 -0.09490253242476027
559600000 -0.10815177524943922 -0.0455632611620719
563400000 -0.10638566601056884 0.007284659126463198
567200000 -0.08614961957774675 0.05328707880170885
571000000 -0.055182001478888146 0.09197268434225116
574800000 -0.015095050854380636 0.1144349005922889
578600000 0.02989692214311528 0.12294114658838066
582400000 0.07465822986037986 0.11537093215266264
586200000 0.11823777042241933 0.0934344683611878
590000000 0.150109617344704 0.055583957733973954
593800000 0.1720713100661444 0.010479934036851912
597600000 0.1734571745830504 -0.041954532872930696
601400000 0.16115775111143663 -0.09054395634662768
605200000 0.1331046901752717 -0.13945950530951132
609000000 0.09205092939509793 -0.17735549471564235
612800000 0.039583804251751564 -0.2015930079514171
616600000 -0.016793813925741065 -0.20896923377227958
620400000 -0.07538499477448532 -0.20616360515570417
624200000 -0.13320942632373645 -0.18273231482666577
628000000 -0.18451858598237803 -0.14380511165644183
631800000 -0.2179707649710814 -0.0908558049287293
635600000 -0.24065329740176628 -0.03387241942662311
639400000 -0.24306939207949935 0.02251779486985577
643200000 -0.23125418843592677 0.077345202576692
647000000 -0.20942291084353482 0.12258649601693028
650800000 -0.18151904357121615 0.15871492522614172
654600000 -0.14861390322706788 0.18447102217244782
658400000 -0.12162529393191224 0.19855677338742408
662200000 -0.09596525670315781 0.21083291854691863
666000000 -0.07676149478938592 0.22437974057777016
669800000 -0.0558356626065539 0.24038590615820798
673600000 -0.03169308242475711 0.26158091356507596
677400000 0.0036813166301311005 0.2759889257564811
681200000 0.035799758486298836 0.2872405566349576
685000000 0.07194742834858697 0.3012768215589693
688800000 0.11729740117635143 0.31199811092139895
692600000 0.17769624777530546 0.3113677242246862
696400000 0.23688961942504888 0.2990964434767912
700200000 0.3001690337371309 0.2743016333689241
704000000 0.36005748316311054 0.22834619118275
707800000 0.4121522089979491 0.16950542757255702
711600000 0.45038624880027306 0.09724205187531844
715400000 0.4738867149568648 0.01753121011452162
719200000 0.4816638317479291 -0.07668049349054218
723000000 0.4629518125495504 -0.16503752383278178
726800000 0.42906138799724486 -0.2508208122498269
730600000 0.37535046690037976 -0.32863993116570767
734400000 0.3112560566193358 -0.39730974494470533
738200000 0.23063335601646273 -0.4486735980914838
742000000 0.14283522406225424 -0.48513669609010734
745800000 0.04743956562818674 -0.5044877342617043
749600000 -0.04676580385236239 -0.5080661097274568
753400000 -0.1458540195083297 -0.49071527207663446
757200000 -0.23792634312224928 -0.4547733839619986
761000000 -0.32283213135403677 -0.4044367738249663
764800000 -0.39902439879472673 -0.33581049894028636
768600000 -0.4607155962440299 -0.2520491844329425
772400000 -0.5053268288157172 -0.1605970069237149
776200000 -0.5328285933127841 -0.06024864607736887
780000000 -0.5401163961318824 0.04451111775593823
