# HZ S RI R 50
670000000 0.5449190098926083 -0.07026527002915113
676300000 0.45143856329614235 -0.23007033889880876
682600000 0.3242647572167993 -0.3351300953747109
688900000 0.1721246098588577 -0.38269472994919207
695200000 0.04109556247576606 -0.3751170186396104
701500000 -0.07835624916376277 -0.33686533649444744
707800000 -0.17350493998898586 -0.2640362580160054
714100000 -0.23932788742001712 -0.17648509215882577
720400000 -0.2713285918256503 -0.0691210850733132
726700000 -0.26837890312548 0.03322223252311449
733000000 -0.22596385215606293 0.13377429753026637
739300000 -0.1523241725733847 0.1980338260170772
745600000 -0.07338538819695643 0.23068106933657456
751900000 0.014419471439102107 0.23572393373303496
758200000 0.09312263158331767 0.2072211607903893
764500000 0.14832566246883389 0.14841988871537667
770800000 0.17633928311783456 0.08323942386006357
777100000 0.17852364716758432 0.012630151825809675
783400000 0.1521563634101282 -0.049023843996182204
789700000 0.10604863536274521 -0.09596316753546526
796000000 0.043618741852701357 -0.11876704126417499
802300000 -0.017819204539819906 -0.11410153486040214
808600000 -0.07839077027507889 -0.084584099168136
814900000 -0.117921914026691 -0.031795384728396374
821200000 -0.13078974099741447 0.034158650224495546
827500000 -0.11535113892441298 0.10413236792020669
833800000 -0.0743758426823449 0.15758789718116145
840100000 -0.01161068479603236 0.19535967300805457
846400000 0.06499150799300508 0.20254979955138042
852700000 0.14135353930831504 0.18212302292104288
859000000 0.2103381435510216 0.12395314603364853
865300000 0.24799263267564584 0.04410720442084545
871600000 0.2540560217709759 -0.04916949217828024
877900000 0.22171015881455236 -0.1408806719221855
884200000 0.15949918062418386 -0.21541320089996713
890500000 0.07381349856650934 -0.26738312780358436
896800000 -0.027448316329659665 -0.28334309036572336
903100000 -0.13010286660307835 -0.2656761199933419
909400000 -0.22469305736285314 -0.21763028656426603
915700000 -0.29816633512652946 -0.13856164414628322
922000000 -0.349959732561639 -0.04000338554807165
928300000 -0.3634858721380303 0.07068549293865888
934600000 -0.34614151446780445 0.18222038945321273
940900000 -0.29308411009116275 0.2923776470107017
947200000 -0.21176480468083517 0.3750081830096484
953500000 -0.1068661390588647 0.43512056476903593
959800000 0.016162311324486724 0.46206696029458416
966100000 0.14419782406224513 0.4533781630446704
972400000 0.26637543116713513 0.4038256324673222
978700000 0.36657950985786864 0.319663497913414
985000000 0.44381860023418646 0.20455668357663975
991300000 0.4830510983677823 0.07389288232165898
997600000 0.48044629384165316 -0.07415369543803305
1003900000 0.43067884366448683 -0.21227456172094417
1010200000 0.3410669880018944 -0.3316836329833117
1016500000 0.21468098430147242 -0.4200607071621913
1022800000 0.06784042381621788 -0.46566598090637595
1029100000 -0.08990302758837915 -0.4633029934250158
1035400000 -0.23730262380803463 -0.4136112359223302
1041700000 -0.3688992982769497 -0.3201158154562338
1048000000 -0.4618954796749275 -0.18953100869252726
1054300000 -0.5127331933745675 -0.0389552799632024
1060600000 -0.516174334275652 0.12103989508021124
1066900000 -0.471394555956798 0.27073532011558354
1073200000 -0.3872449666496177 0.4029225960901372
1079500000 -0.2653701680762132 0.5068781002106304
1085800000 -0.1257307312044423 0.5633775234667823
1092100000 0.0226447370487128 0.5833657608844501
1098400000 0.1744318165018848 0.5633131275124641
1104700000 0.3081955375708688 0.49891295135796565
1111000000 0.41774360399736654 0.40101833323784025
1117300000 0.5001765790879679 0.28255559544074377
1123600000 0.5428994324955696 0.14524021961504624
1129900000 0.5536841056414202 0.0011336784974981026
1136200000 0.5217626002018568 -0.14201824457028075
1142500000 0.4546905621439991 -0.27194568371475547
1148800000 0.35027286370632704 -0.38744899737472044
1155100000 0.20943309852295539 -0.46453002051355113
1161400000 0.057747026289798484 -0.5058047133937528
1167700000 -0.11182184798844588 -0.4890546974833208
1174000000 -0.26847149195079256 -0.430516784117518
1180300000 -0.40127256834879826 -0.3209118092280552
1186600000 -0.4940695241759528 -0.1733422103473039
1192900000 -0.5395386804205187 -0.006434988122252199
1199200000 -0.5305772714753366 0.16865717625324658
1205500000 -0.4679533164556789 0.32814658118585255
1211800000 -0.36288412540995346 0.4626599312255051
1218100000 -0.22615432534881694 0.5572585519768715
1224400000 -0.07147192473474097 0.6066098931473232
1230700000 0.09227293392839425 0.6123280790943681
1237000000 0.24274768878167044 0.5769604953807036
1243300000 0.38025603715534123 0.49506844176238296
1249600000 0.4886549553739679 0.3840098540336965
1255900000 0.5639011667330973 0.2442441605944608
1262200000 0.5967435478767352 0.09049379428462491
1268500000 0.5885531442480868 -0.06862827886732513
1274800000 0.5335827251582568 -0.22280755524401233
1281100000 0.4370237256933269 -0.3530033276815367
1287400000 0.3005941903517254 -0.4493726829030494
1293700000 0.1440474332300278 -0.5099395589444725
1300000000 -0.027228135789959373 -0.5165955815939496
